n=20;
demand=2;
horizon=20;
est=[10,0,6,3,0,4,11,18,11,19,12,0,6,13,18,13,2,1,15,9];
processing_time=[9,2,6,1,18,8,8,2,8,1,4,9,11,6,1,1,5,1,1,7];
lct=[20,20,13,13,19,20,20,20,20,20,19,14,20,19,19,14,10,16,19,20];
